Route #1: 1 1 10 21 16 22 37 2 35 1 
Route #2: 1 28 32 26 31 34 6 9 3 1 
Route #3: 1 20 15 11 19 25 13 1 
Route #4: 1 14 7 36 17 29 12 5 27 1 
Route #5: 1 30 23 18 33 4 24 1 
Route #6: 1 8 1 

Cost 1140.7
Time 0.2212


 * Another infos *

 Iterations: 38 Time: 0.2212 sec - 0.0037 min - 0.0001 horas
0.0000 h 0.0037 min
Problem dimension: 38
